p td 1000 2854 
659 15
659 22
659 25
659 28
659 31
659 34
659 38
659 46
659 50
659 55
659 69
659 70
659 73
659 75
659 80
659 81
659 89
659 91
659 92
659 100
659 109
659 110
659 116
659 120
659 122
659 124
659 133
659 137
659 140
659 141
659 146
659 149
659 153
659 154
659 157
659 163
659 166
659 172
659 179
659 182
659 183
659 185
659 186
659 200
659 207
659 213
659 226
659 234
659 236
659 237
659 239
659 247
659 250
659 259
659 261
659 262
659 268
659 270
659 276
659 285
659 286
659 294
659 295
659 298
659 300
659 302
659 304
659 305
659 308
659 324
659 329
659 330
659 335
659 344
659 346
659 363
659 370
659 374
659 383
659 398
659 402
659 405
659 411
659 418
659 422
659 428
659 429
659 433
659 435
659 441
659 443
659 445
659 449
659 455
659 463
659 467
659 478
659 482
659 490
659 502
659 504
659 505
659 514
659 515
659 516
659 518
659 524
659 529
659 530
659 532
659 535
659 538
659 542
659 548
659 550
659 555
659 562
659 565
659 570
659 572
659 575
659 578
659 580
659 593
659 597
659 621
659 622
659 624
659 628
659 637
659 656
659 660
659 662
659 666
659 668
659 673
659 676
659 695
659 699
659 701
659 703
659 707
659 710
659 715
659 718
659 729
659 731
659 735
659 736
659 738
659 750
659 753
659 754
659 763
659 778
659 780
659 781
659 793
659 801
659 806
659 808
659 814
659 838
659 842
659 844
659 849
659 851
659 860
659 861
659 863
659 878
659 885
659 897
659 903
659 905
659 909
659 913
659 916
659 921
659 926
659 928
659 934
659 938
659 940
659 941
659 947
659 950
659 955
659 957
659 959
659 974
659 976
659 982
659 984
659 987
659 992
981 4
981 7
981 9
981 14
981 16
981 24
981 37
981 47
981 48
981 52
981 61
981 67
981 74
981 75
981 76
981 82
981 86
981 103
981 123
981 145
981 153
981 156
981 157
981 169
981 172
981 186
981 209
981 215
981 217
981 218
981 224
981 226
981 240
981 245
981 246
981 248
981 249
981 253
981 267
981 274
981 276
981 278
981 282
981 285
981 307
981 313
981 320
981 333
981 335
981 336
981 345
981 350
981 351
981 355
981 358
981 359
981 365
981 367
981 368
981 375
981 378
981 382
981 384
981 389
981 390
981 394
981 401
981 404
981 408
981 415
981 417
981 418
981 421
981 426
981 432
981 438
981 439
981 440
981 462
981 468
981 472
981 476
981 481
981 488
981 499
981 502
981 505
981 507
981 515
981 516
981 519
981 520
981 532
981 537
981 539
981 540
981 556
981 557
981 562
981 564
981 567
981 573
981 593
981 594
981 599
981 604
981 609
981 616
981 617
981 618
981 623
981 624
981 626
981 633
981 641
981 647
981 648
981 652
981 653
981 660
981 664
981 665
981 673
981 690
981 695
981 702
981 709
981 711
981 715
981 719
981 721
981 729
981 734
981 739
981 746
981 748
981 751
981 754
981 755
981 759
981 775
981 776
981 784
981 786
981 787
981 790
981 792
981 793
981 794
981 798
981 804
981 805
981 820
981 821
981 822
981 833
981 834
981 839
981 862
981 863
981 864
981 867
981 874
981 883
981 884
981 890
981 895
981 903
981 908
981 919
981 923
981 927
981 933
981 949
981 953
981 955
981 958
981 961
981 962
981 968
981 969
981 981
981 983
981 985
981 992
981 994
981 995
789 7
789 16
789 21
789 36
789 44
789 47
789 61
789 64
789 75
789 80
789 86
789 89
789 90
789 94
789 107
789 108
789 116
789 122
789 124
789 127
789 132
789 137
789 139
789 142
789 143
789 145
789 151
789 152
789 153
789 154
789 156
789 162
789 164
789 165
789 166
789 169
789 173
789 181
789 185
789 186
789 191
789 197
789 203
789 206
789 213
789 214
789 215
789 218
789 232
789 238
789 244
789 248
789 252
789 254
789 257
789 258
789 259
789 262
789 267
789 273
789 278
789 279
789 280
789 283
789 287
789 302
789 311
789 318
789 319
789 321
789 324
789 328
789 331
789 341
789 346
789 351
789 352
789 353
789 356
789 358
789 361
789 366
789 370
789 373
789 377
789 379
789 384
789 385
789 387
789 388
789 394
789 395
789 401
789 412
789 413
789 414
789 415
789 416
789 419
789 420
789 425
789 434
789 443
789 447
789 454
789 457
789 472
789 474
789 480
789 482
789 491
789 492
789 496
789 497
789 499
789 510
789 524
789 526
789 529
789 533
789 538
789 557
789 571
789 572
789 574
789 578
789 586
789 596
789 597
789 599
789 602
789 609
789 623
789 630
789 631
789 650
789 653
789 661
789 664
789 674
789 678
789 679
789 686
789 687
789 692
789 696
789 700
789 702
789 708
789 709
789 713
789 722
789 726
789 729
789 731
789 732
789 739
789 742
789 746
789 751
789 753
789 762
789 768
789 778
789 785
789 796
789 804
789 829
789 839
789 856
789 857
789 865
789 866
789 867
789 871
789 872
789 874
789 881
789 883
789 889
789 890
789 893
789 898
789 903
789 911
789 912
789 913
789 915
789 922
789 927
789 932
789 933
789 935
789 938
789 945
789 960
789 963
789 974
789 976
789 977
789 980
789 983
789 997
787 4
787 5
787 10
787 11
787 12
787 34
787 40
787 46
787 47
787 53
787 58
787 61
787 65
787 74
787 77
787 80
787 88
787 89
787 91
787 95
787 96
787 99
787 102
787 104
787 107
787 108
787 115
787 123
787 127
787 132
787 134
787 137
787 150
787 157
787 162
787 164
787 165
787 168
787 183
787 185
787 187
787 195
787 199
787 200
787 203
787 204
787 206
787 209
787 212
787 219
787 228
787 231
787 235
787 251
787 256
787 266
787 274
787 277
787 280
787 283
787 288
787 289
787 292
787 300
787 305
787 308
787 312
787 322
787 324
787 335
787 340
787 343
787 345
787 359
787 364
787 365
787 375
787 385
787 391
787 397
787 399
787 407
787 413
787 416
787 425
787 430
787 439
787 440
787 454
787 463
787 466
787 481
787 482
787 497
787 509
787 515
787 520
787 526
787 537
787 553
787 554
787 558
787 562
787 572
787 576
787 579
787 580
787 591
787 594
787 612
787 622
787 624
787 626
787 630
787 634
787 643
787 650
787 653
787 655
787 658
787 671
787 676
787 680
787 683
787 684
787 687
787 690
787 693
787 696
787 705
787 715
787 716
787 718
787 720
787 725
787 728
787 729
787 740
787 741
787 745
787 746
787 759
787 761
787 773
787 783
787 786
787 788
787 797
787 806
787 810
787 811
787 830
787 836
787 840
787 850
787 864
787 876
787 878
787 882
787 886
787 892
787 898
787 900
787 917
787 928
787 931
787 933
787 936
787 945
787 946
787 948
787 951
787 954
787 958
787 960
787 963
787 969
787 980
787 988
787 989
518 7
518 11
518 12
518 18
518 19
518 22
518 23
518 25
518 32
518 34
518 41
518 44
518 53
518 55
518 59
518 61
518 63
518 64
518 68
518 72
518 85
518 86
518 105
518 106
518 113
518 115
518 124
518 125
518 128
518 139
518 144
518 150
518 167
518 182
518 200
518 202
518 204
518 205
518 210
518 212
518 213
518 215
518 216
518 219
518 220
518 230
518 241
518 242
518 247
518 249
518 254
518 255
518 268
518 274
518 284
518 287
518 290
518 291
518 293
518 297
518 303
518 305
518 315
518 317
518 328
518 342
518 354
518 356
518 358
518 360
518 361
518 378
518 389
518 399
518 402
518 406
518 410
518 412
518 413
518 416
518 418
518 421
518 422
518 427
518 430
518 439
518 448
518 450
518 452
518 453
518 454
518 457
518 460
518 465
518 471
518 476
518 484
518 505
518 506
518 516
518 525
518 526
518 535
518 542
518 549
518 551
518 554
518 569
518 572
518 575
518 582
518 584
518 594
518 598
518 599
518 601
518 605
518 608
518 611
518 614
518 618
518 628
518 629
518 631
518 648
518 649
518 655
518 667
518 689
518 691
518 693
518 694
518 696
518 697
518 703
518 706
518 717
518 725
518 729
518 736
518 738
518 741
518 742
518 745
518 747
518 748
518 749
518 758
518 761
518 763
518 786
518 795
518 800
518 810
518 814
518 819
518 840
518 842
518 844
518 854
518 855
518 862
518 864
518 869
518 877
518 879
518 880
518 881
518 889
518 893
518 899
518 901
518 902
518 909
518 910
518 912
518 921
518 923
518 936
518 938
518 944
518 947
518 960
518 973
518 974
518 977
518 994
518 995
518 998
605 3
605 7
605 14
605 22
605 23
605 24
605 31
605 32
605 34
605 35
605 37
605 48
605 50
605 51
605 56
605 66
605 69
605 70
605 76
605 78
605 82
605 91
605 104
605 107
605 112
605 114
605 122
605 126
605 139
605 143
605 146
605 154
605 156
605 158
605 160
605 161
605 162
605 165
605 180
605 186
605 187
605 192
605 195
605 199
605 205
605 213
605 214
605 222
605 228
605 241
605 242
605 249
605 250
605 251
605 263
605 265
605 272
605 277
605 282
605 289
605 292
605 303
605 305
605 311
605 313
605 317
605 322
605 324
605 329
605 336
605 341
605 342
605 344
605 347
605 351
605 353
605 354
605 357
605 359
605 367
605 379
605 387
605 390
605 391
605 398
605 400
605 407
605 408
605 409
605 415
605 417
605 428
605 439
605 447
605 448
605 451
605 455
605 457
605 471
605 478
605 482
605 486
605 487
605 490
605 495
605 500
605 503
605 504
605 507
605 511
605 513
605 515
605 530
605 532
605 533
605 540
605 542
605 543
605 546
605 548
605 549
605 550
605 552
605 563
605 567
605 569
605 573
605 575
605 590
605 593
605 600
605 602
605 603
605 613
605 631
605 639
605 642
605 644
605 654
605 655
605 663
605 669
605 674
605 679
605 686
605 687
605 691
605 697
605 698
605 708
605 712
605 715
605 719
605 722
605 735
605 746
605 762
605 764
605 767
605 771
605 778
605 779
605 780
605 782
605 784
605 786
605 788
605 793
605 796
605 797
605 800
605 804
605 807
605 811
605 812
605 820
605 821
605 822
605 832
605 839
605 840
605 841
605 857
605 858
605 859
605 861
605 865
605 869
605 883
605 894
605 896
605 897
605 899
605 903
605 907
605 911
605 912
605 932
605 937
605 944
605 947
605 948
605 956
605 971
605 981
605 986
605 997
324 7
324 20
324 31
324 37
324 38
324 41
324 44
324 45
324 50
324 55
324 57
324 58
324 61
324 64
324 66
324 68
324 80
324 91
324 92
324 93
324 94
324 99
324 100
324 110
324 119
324 122
324 127
324 139
324 148
324 149
324 152
324 154
324 166
324 171
324 180
324 187
324 190
324 193
324 199
324 210
324 216
324 218
324 219
324 226
324 228
324 238
324 250
324 253
324 254
324 255
324 256
324 257
324 258
324 262
324 266
324 269
324 270
324 273
324 277
324 281
324 289
324 291
324 295
324 296
324 308
324 310
324 311
324 312
324 330
324 338
324 342
324 344
324 345
324 347
324 349
324 350
324 351
324 356
324 359
324 361
324 362
324 364
324 365
324 367
324 369
324 370
324 373
324 375
324 376
324 379
324 383
324 389
324 391
324 396
324 397
324 399
324 400
324 402
324 410
324 426
324 427
324 429
324 432
324 441
324 443
324 444
324 446
324 452
324 455
324 458
324 460
324 461
324 462
324 463
324 464
324 467
324 469
324 474
324 482
324 484
324 485
324 486
324 498
324 499
324 516
324 517
324 524
324 526
324 530
324 535
324 545
324 546
324 553
324 555
324 560
324 577
324 578
324 593
324 599
324 609
324 614
324 615
324 620
324 621
324 629
324 634
324 635
324 637
324 638
324 649
324 654
324 656
324 658
324 660
324 662
324 663
324 675
324 678
324 691
324 692
324 694
324 695
324 706
324 710
324 715
324 717
324 721
324 723
324 725
324 726
324 731
324 739
324 748
324 750
324 755
324 760
324 777
324 784
324 790
324 791
324 793
324 800
324 801
324 805
324 807
324 808
324 813
324 815
324 824
324 828
324 829
324 834
324 837
324 841
324 844
324 846
324 847
324 850
324 855
324 860
324 864
324 868
324 878
324 879
324 880
324 884
324 885
324 887
324 896
324 897
324 898
324 900
324 907
324 908
324 913
324 920
324 921
324 922
324 924
324 926
324 929
324 940
324 947
324 949
324 955
324 959
324 960
324 961
324 965
324 969
324 973
324 975
324 980
324 981
324 986
324 988
324 989
324 995
324 999
267 3
267 22
267 30
267 33
267 39
267 42
267 45
267 46
267 55
267 56
267 58
267 61
267 67
267 77
267 79
267 83
267 93
267 94
267 95
267 98
267 100
267 109
267 116
267 120
267 141
267 145
267 147
267 151
267 155
267 157
267 170
267 175
267 177
267 182
267 192
267 207
267 209
267 222
267 225
267 235
267 251
267 252
267 254
267 255
267 267
267 272
267 278
267 279
267 284
267 291
267 298
267 301
267 304
267 324
267 350
267 352
267 354
267 355
267 356
267 358
267 359
267 366
267 380
267 384
267 385
267 403
267 412
267 413
267 428
267 429
267 435
267 439
267 442
267 447
267 453
267 454
267 456
267 457
267 458
267 460
267 461
267 480
267 485
267 506
267 507
267 509
267 510
267 511
267 513
267 514
267 523
267 525
267 526
267 528
267 530
267 544
267 552
267 554
267 562
267 567
267 579
267 606
267 609
267 611
267 619
267 620
267 621
267 630
267 640
267 647
267 648
267 652
267 655
267 664
267 668
267 672
267 673
267 688
267 689
267 692
267 693
267 696
267 718
267 726
267 728
267 732
267 733
267 734
267 746
267 749
267 757
267 761
267 764
267 769
267 773
267 775
267 780
267 794
267 798
267 801
267 826
267 831
267 832
267 838
267 842
267 863
267 864
267 868
267 872
267 878
267 884
267 886
267 895
267 901
267 905
267 907
267 910
267 915
267 916
267 918
267 921
267 927
267 939
267 949
267 950
267 952
267 956
267 970
267 972
267 974
267 976
267 984
267 985
267 992
236 7
236 9
236 14
236 15
236 16
236 18
236 28
236 30
236 40
236 42
236 46
236 53
236 57
236 65
236 78
236 81
236 91
236 94
236 97
236 100
236 107
236 108
236 122
236 130
236 132
236 137
236 140
236 144
236 147
236 150
236 153
236 157
236 162
236 163
236 168
236 170
236 172
236 181
236 195
236 201
236 212
236 216
236 221
236 226
236 229
236 233
236 241
236 248
236 252
236 258
236 259
236 261
236 264
236 271
236 273
236 275
236 276
236 279
236 283
236 285
236 292
236 294
236 295
236 299
236 300
236 303
236 317
236 318
236 332
236 333
236 334
236 341
236 353
236 354
236 361
236 371
236 372
236 373
236 377
236 383
236 387
236 393
236 397
236 398
236 400
236 405
236 406
236 412
236 413
236 427
236 428
236 431
236 432
236 437
236 442
236 449
236 454
236 459
236 461
236 472
236 474
236 488
236 493
236 495
236 503
236 505
236 508
236 519
236 526
236 528
236 531
236 532
236 542
236 543
236 545
236 548
236 561
236 562
236 571
236 574
236 586
236 587
236 593
236 613
236 618
236 623
236 625
236 639
236 642
236 643
236 644
236 646
236 659
236 663
236 681
236 686
236 690
236 697
236 699
236 708
236 716
236 720
236 724
236 727
236 728
236 738
236 739
236 740
236 742
236 743
236 744
236 748
236 750
236 755
236 759
236 760
236 776
236 781
236 799
236 810
236 812
236 818
236 819
236 822
236 824
236 827
236 842
236 844
236 848
236 850
236 852
236 856
236 857
236 864
236 870
236 876
236 877
236 879
236 886
236 888
236 892
236 898
236 899
236 908
236 914
236 918
236 937
236 938
236 942
236 945
236 957
236 962
236 963
236 966
236 976
236 977
236 984
236 985
236 990
236 991
236 996
236 997
236 998
938 5
938 9
938 13
938 14
938 18
938 23
938 27
938 29
938 30
938 31
938 34
938 39
938 42
938 47
938 54
938 58
938 59
938 63
938 67
938 70
938 71
938 72
938 79
938 82
938 85
938 86
938 97
938 100
938 108
938 117
938 127
938 131
938 137
938 143
938 144
938 145
938 151
938 153
938 159
938 162
938 167
938 178
938 182
938 193
938 199
938 200
938 202
938 208
938 210
938 222
938 226
938 230
938 234
938 237
938 239
938 242
938 246
938 247
938 260
938 263
938 268
938 277
938 278
938 282
938 283
938 285
938 287
938 293
938 294
938 295
938 308
938 317
938 319
938 323
938 331
938 334
938 335
938 336
938 338
938 339
938 352
938 356
938 361
938 362
938 364
938 368
938 372
938 381
938 383
938 388
938 390
938 395
938 397
938 400
938 405
938 412
938 413
938 417
938 424
938 429
938 434
938 440
938 443
938 454
938 456
938 460
938 479
938 481
938 482
938 484
938 486
938 492
938 495
938 501
938 502
938 503
938 508
938 514
938 519
938 529
938 531
938 532
938 543
938 545
938 546
938 547
938 548
938 555
938 562
938 567
938 569
938 572
938 573
938 582
938 584
938 591
938 614
938 617
938 620
938 621
938 623
938 628
938 634
938 637
938 640
938 641
938 649
938 650
938 651
938 671
938 673
938 674
938 678
938 681
938 683
938 717
938 719
938 721
938 727
938 729
938 731
938 737
938 738
938 739
938 746
938 750
938 752
938 756
938 764
938 766
938 775
938 778
938 780
938 784
938 788
938 789
938 795
938 808
938 809
938 811
938 818
938 834
938 842
938 847
938 848
938 852
938 858
938 859
938 860
938 866
938 867
938 872
938 875
938 879
938 880
938 885
938 888
938 890
938 891
938 895
938 897
938 913
938 937
938 943
938 944
938 949
938 951
938 952
938 959
938 965
938 969
938 991
938 996
938 997
938 999
740 10
740 13
740 32
740 36
740 41
740 43
740 48
740 67
740 71
740 72
740 86
740 91
740 94
740 97
740 102
740 114
740 119
740 120
740 122
740 124
740 125
740 129
740 132
740 134
740 135
740 141
740 155
740 160
740 163
740 164
740 165
740 168
740 173
740 178
740 179
740 184
740 190
740 191
740 193
740 198
740 202
740 215
740 223
740 225
740 239
740 243
740 245
740 246
740 247
740 250
740 252
740 253
740 254
740 260
740 264
740 275
740 283
740 289
740 294
740 304
740 306
740 307
740 310
740 312
740 314
740 317
740 319
740 323
740 334
740 335
740 336
740 340
740 355
740 356
740 364
740 367
740 372
740 373
740 377
740 379
740 382
740 383
740 387
740 390
740 393
740 396
740 397
740 399
740 401
740 405
740 408
740 426
740 435
740 442
740 449
740 464
740 474
740 487
740 488
740 489
740 491
740 492
740 496
740 498
740 508
740 517
740 518
740 519
740 524
740 526
740 527
740 529
740 531
740 534
740 535
740 546
740 547
740 549
740 554
740 555
740 558
740 588
740 590
740 591
740 592
740 597
740 604
740 611
740 612
740 620
740 622
740 628
740 630
740 632
740 635
740 639
740 640
740 646
740 654
740 655
740 656
740 658
740 660
740 667
740 671
740 672
740 676
740 678
740 682
740 686
740 699
740 711
740 712
740 717
740 720
740 723
740 727
740 729
740 731
740 736
740 737
740 741
740 745
740 751
740 752
740 753
740 756
740 764
740 771
740 775
740 778
740 785
740 787
740 795
740 798
740 804
740 809
740 814
740 821
740 822
740 829
740 839
740 840
740 846
740 851
740 852
740 853
740 856
740 858
740 859
740 860
740 868
740 869
740 873
740 875
740 880
740 881
740 882
740 886
740 889
740 893
740 895
740 898
740 900
740 913
740 921
740 922
740 925
740 933
740 935
740 936
740 939
740 941
740 946
740 958
740 959
740 961
740 965
740 970
740 971
740 972
740 985
740 994
740 996
101 4
101 5
101 6
101 8
101 10
101 11
101 15
101 17
101 18
101 19
101 26
101 32
101 43
101 44
101 48
101 52
101 55
101 57
101 61
101 67
101 69
101 75
101 76
101 77
101 80
101 85
101 87
101 99
101 106
101 107
101 108
101 111
101 112
101 117
101 124
101 130
101 134
101 135
101 136
101 141
101 150
101 151
101 152
101 156
101 158
101 168
101 171
101 180
101 194
101 195
101 202
101 203
101 204
101 209
101 214
101 221
101 224
101 233
101 235
101 237
101 240
101 241
101 251
101 252
101 264
101 265
101 268
101 271
101 276
101 279
101 280
101 285
101 286
101 290
101 291
101 292
101 300
101 302
101 305
101 313
101 321
101 323
101 325
101 328
101 329
101 339
101 340
101 342
101 351
101 355
101 360
101 362
101 367
101 381
101 385
101 389
101 390
101 393
101 396
101 398
101 421
101 422
101 426
101 428
101 431
101 436
101 447
101 452
101 465
101 467
101 469
101 471
101 475
101 498
101 500
101 505
101 516
101 520
101 521
101 523
101 525
101 526
101 533
101 536
101 538
101 540
101 542
101 543
101 544
101 556
101 559
101 562
101 575
101 580
101 587
101 591
101 595
101 597
101 598
101 600
101 621
101 623
101 628
101 629
101 631
101 632
101 643
101 644
101 646
101 650
101 652
101 657
101 658
101 664
101 666
101 668
101 679
101 684
101 686
101 689
101 693
101 696
101 700
101 705
101 706
101 714
101 725
101 737
101 750
101 768
101 771
101 777
101 780
101 785
101 789
101 790
101 792
101 796
101 798
101 809
101 815
101 822
101 831
101 835
101 838
101 841
101 863
101 864
101 868
101 870
101 883
101 884
101 893
101 910
101 913
101 925
101 926
101 928
101 939
101 946
101 948
101 954
101 961
101 962
101 964
101 966
101 967
101 972
101 982
101 986
101 991
101 993
101 994
101 996
661 7
661 8
661 9
661 15
661 19
661 22
661 29
661 31
661 35
661 42
661 50
661 52
661 58
661 62
661 70
661 77
661 79
661 81
661 84
661 88
661 92
661 99
661 100
661 103
661 106
661 112
661 114
661 121
661 130
661 134
661 141
661 146
661 148
661 149
661 150
661 154
661 171
661 176
661 180
661 186
661 188
661 189
661 194
661 196
661 208
661 209
661 226
661 233
661 234
661 235
661 236
661 251
661 253
661 257
661 262
661 282
661 284
661 285
661 301
661 307
661 312
661 318
661 321
661 331
661 338
661 339
661 349
661 355
661 359
661 362
661 363
661 370
661 371
661 372
661 373
661 377
661 382
661 385
661 388
661 394
661 397
661 403
661 411
661 417
661 420
661 423
661 426
661 427
661 428
661 431
661 433
661 437
661 448
661 457
661 458
661 459
661 461
661 465
661 466
661 475
661 479
661 484
661 506
661 520
661 521
661 531
661 544
661 545
661 552
661 553
661 556
661 559
661 563
661 569
661 571
661 576
661 579
661 583
661 589
661 590
661 599
661 600
661 605
661 606
661 607
661 610
661 616
661 619
661 620
661 627
661 629
661 631
661 645
661 649
661 650
661 663
661 664
661 665
661 672
661 674
661 675
661 676
661 682
661 686
661 689
661 691
661 693
661 702
661 707
661 708
661 720
661 721
661 722
661 724
661 727
661 736
661 738
661 739
661 750
661 759
661 763
661 769
661 770
661 777
661 781
661 783
661 784
661 788
661 790
661 801
661 802
661 803
661 805
661 811
661 827
661 828
661 829
661 836
661 840
661 845
661 853
661 856
661 857
661 865
661 867
661 871
661 883
661 888
661 891
661 894
661 896
661 897
661 906
661 914
661 917
661 918
661 925
661 936
661 940
661 942
661 943
661 953
661 969
661 970
661 973
661 974
661 980
661 981
661 982
661 990
661 991
661 993
661 998
115 4
115 9
115 10
115 13
115 19
115 33
115 35
115 37
115 53
115 71
115 72
115 73
115 76
115 79
115 86
115 99
115 100
115 101
115 110
115 113
115 118
115 123
115 129
115 130
115 133
115 136
115 138
115 141
115 145
115 147
115 163
115 164
115 165
115 166
115 168
115 173
115 193
115 197
115 198
115 203
115 205
115 209
115 215
115 225
115 226
115 231
115 233
115 234
115 235
115 239
115 246
115 254
115 255
115 256
115 257
115 259
115 268
115 285
115 288
115 290
115 298
115 302
115 303
115 310
115 314
115 320
115 323
115 324
115 327
115 328
115 334
115 345
115 346
115 353
115 359
115 360
115 366
115 374
115 381
115 383
115 386
115 388
115 394
115 395
115 400
115 405
115 407
115 409
115 415
115 416
115 417
115 420
115 421
115 434
115 438
115 441
115 452
115 458
115 461
115 471
115 472
115 478
115 480
115 487
115 496
115 497
115 498
115 499
115 505
115 510
115 515
115 524
115 529
115 531
115 543
115 545
115 556
115 568
115 575
115 578
115 579
115 582
115 584
115 586
115 592
115 595
115 600
115 605
115 607
115 608
115 609
115 610
115 616
115 621
115 622
115 623
115 646
115 651
115 660
115 670
115 676
115 677
115 680
115 686
115 687
115 689
115 693
115 703
115 706
115 713
115 714
115 718
115 722
115 725
115 726
115 729
115 730
115 735
115 740
115 741
115 747
115 749
115 751
115 757
115 764
115 766
115 769
115 780
115 795
115 804
115 811
115 812
115 819
115 823
115 825
115 828
115 835
115 841
115 842
115 846
115 847
115 850
115 852
115 855
115 859
115 866
115 878
115 887
115 896
115 898
115 900
115 901
115 907
115 913
115 916
115 918
115 920
115 921
115 929
115 934
115 943
115 944
115 949
115 950
115 967
115 970
115 971
115 973
115 985
115 1000
